p cnf 274 1095
c p weight 9 1 0
c p weight -9 1 0
c p weight 10 0 0
c p weight -10 1 0
c p weight -7 1 0
c p weight 7 -1 0
c p weight 13 6.12323399573676603586882014729198302312846062338790031898128063403419218957424163818359375E-17 0
c p weight -13 1 0
c p weight 14 1 0
c p weight -14 1 0
c p weight -11 1 0
c p weight 11 -1 0
c p weight 17 -0.1335612396259832357348074083347455598413944244384765625 0
c p weight -17 1 0
c p weight 18 0.99104056186897349078890329110436141490936279296875 0
c p weight -18 1 0
c p weight -15 1 0
c p weight 15 -1 0
c p weight 21 6.12323399573676603586882014729198302312846062338790031898128063403419218957424163818359375E-17 0
c p weight -21 1 0
c p weight 22 1 0
c p weight -22 1 0
c p weight -19 1 0
c p weight 19 -1 0
c p weight 25 -1 0
c p weight -25 1 0
c p weight 26 3.673940397442059375002259206809000622711899723162043418511757408850826323032379150390625E-16 0
c p weight -26 1 0
c p weight -23 1 0
c p weight 23 -1 0
c p weight 29 1 0
c p weight -29 1 0
c p weight 30 0 0
c p weight -30 1 0
c p weight -27 1 0
c p weight 27 -1 0
c p weight 33 6.12323399573676603586882014729198302312846062338790031898128063403419218957424163818359375E-17 0
c p weight -33 1 0
c p weight 34 1 0
c p weight -34 1 0
c p weight -31 1 0
c p weight 31 -1 0
c p weight 37 -0.991511476394992374849834959604777395725250244140625 0
c p weight -37 1 0
c p weight 38 -0.130019199263118168108377403768827207386493682861328125 0
c p weight -38 1 0
c p weight -35 1 0
c p weight 35 -1 0
c p weight 41 6.12323399573676603586882014729198302312846062338790031898128063403419218957424163818359375E-17 0
c p weight -41 1 0
c p weight 42 1 0
c p weight -42 1 0
c p weight -39 1 0
c p weight 39 -1 0
c p weight 45 -1 0
c p weight -45 1 0
c p weight 46 3.673940397442059375002259206809000622711899723162043418511757408850826323032379150390625E-16 0
c p weight -46 1 0
c p weight -43 1 0
c p weight 43 -1 0
c p weight -47 1 0
c p weight 47 -1 0
c p weight 52 1 0
c p weight -52 1 0
c p weight 53 0 0
c p weight -53 1 0
c p weight -50 1 0
c p weight 50 -1 0
c p weight 56 6.12323399573676603586882014729198302312846062338790031898128063403419218957424163818359375E-17 0
c p weight -56 1 0
c p weight 57 1 0
c p weight -57 1 0
c p weight -54 1 0
c p weight 54 -1 0
c p weight 60 0.6676589223122142424671210392261855304241180419921875 0
c p weight -60 1 0
c p weight 61 0.74446730180505082952180373467854224145412445068359375 0
c p weight -61 1 0
c p weight -58 1 0
c p weight 58 -1 0
c p weight 64 6.12323399573676603586882014729198302312846062338790031898128063403419218957424163818359375E-17 0
c p weight -64 1 0
c p weight 65 1 0
c p weight -65 1 0
c p weight -62 1 0
c p weight 62 -1 0
c p weight 68 -1 0
c p weight -68 1 0
c p weight 69 3.673940397442059375002259206809000622711899723162043418511757408850826323032379150390625E-16 0
c p weight -69 1 0
c p weight -66 1 0
c p weight 66 -1 0
c p weight -70 1 0
c p weight 70 -1 0
c p weight 75 1 0
c p weight -75 1 0
c p weight 76 0 0
c p weight -76 1 0
c p weight -73 1 0
c p weight 73 -1 0
c p weight 79 6.12323399573676603586882014729198302312846062338790031898128063403419218957424163818359375E-17 0
c p weight -79 1 0
c p weight 80 1 0
c p weight -80 1 0
c p weight -77 1 0
c p weight 77 -1 0
c p weight 83 0.00751535691195858411572938706513014039956033229827880859375 0
c p weight -83 1 0
c p weight 84 0.999971759306474528017361080856062471866607666015625 0
c p weight -84 1 0
c p weight -81 1 0
c p weight 81 -1 0
c p weight 87 6.12323399573676603586882014729198302312846062338790031898128063403419218957424163818359375E-17 0
c p weight -87 1 0
c p weight 88 1 0
c p weight -88 1 0
c p weight -85 1 0
c p weight 85 -1 0
c p weight 91 -1 0
c p weight -91 1 0
c p weight 92 3.673940397442059375002259206809000622711899723162043418511757408850826323032379150390625E-16 0
c p weight -92 1 0
c p weight -89 1 0
c p weight 89 -1 0
c p weight -93 1 0
c p weight 93 -1 0
c p weight 98 1 0
c p weight -98 1 0
c p weight 99 0 0
c p weight -99 1 0
c p weight -96 1 0
c p weight 96 -1 0
c p weight 102 6.12323399573676603586882014729198302312846062338790031898128063403419218957424163818359375E-17 0
c p weight -102 1 0
c p weight 103 1 0
c p weight -103 1 0
c p weight -100 1 0
c p weight 100 -1 0
c p weight 106 0.99995600138413631707834383632871322333812713623046875 0
c p weight -106 1 0
c p weight 107 -0.00938058078421928620560521494553540833294391632080078125 0
c p weight -107 1 0
c p weight -104 1 0
c p weight 104 -1 0
c p weight 110 6.12323399573676603586882014729198302312846062338790031898128063403419218957424163818359375E-17 0
c p weight -110 1 0
c p weight 111 1 0
c p weight -111 1 0
c p weight -108 1 0
c p weight 108 -1 0
c p weight 114 -1 0
c p weight -114 1 0
c p weight 115 3.673940397442059375002259206809000622711899723162043418511757408850826323032379150390625E-16 0
c p weight -115 1 0
c p weight -112 1 0
c p weight 112 -1 0
c p weight -116 1 0
c p weight 116 -1 0
c p weight 121 1 0
c p weight -121 1 0
c p weight 122 0 0
c p weight -122 1 0
c p weight -119 1 0
c p weight 119 -1 0
c p weight 125 6.12323399573676603586882014729198302312846062338790031898128063403419218957424163818359375E-17 0
c p weight -125 1 0
c p weight 126 1 0
c p weight -126 1 0
c p weight -123 1 0
c p weight 123 -1 0
c p weight 129 -0.1576963200385754493293433142753201536834239959716796875 0
c p weight -129 1 0
c p weight 130 -0.98748765594628629127527119635487906634807586669921875 0
c p weight -130 1 0
c p weight -127 1 0
c p weight 127 -1 0
c p weight 133 6.12323399573676603586882014729198302312846062338790031898128063403419218957424163818359375E-17 0
c p weight -133 1 0
c p weight 134 1 0
c p weight -134 1 0
c p weight -131 1 0
c p weight 131 -1 0
c p weight 137 -1 0
c p weight -137 1 0
c p weight 138 3.673940397442059375002259206809000622711899723162043418511757408850826323032379150390625E-16 0
c p weight -138 1 0
c p weight -135 1 0
c p weight 135 -1 0
c p weight -139 1 0
c p weight 139 -1 0
c p weight 144 1 0
c p weight -144 1 0
c p weight 145 0 0
c p weight -145 1 0
c p weight -142 1 0
c p weight 142 -1 0
c p weight 148 6.12323399573676603586882014729198302312846062338790031898128063403419218957424163818359375E-17 0
c p weight -148 1 0
c p weight 149 1 0
c p weight -149 1 0
c p weight -146 1 0
c p weight 146 -1 0
c p weight 152 -0.3205694895363857543912899927818216383457183837890625 0
c p weight -152 1 0
c p weight 153 -0.94722500092553563177943942719139158725738525390625 0
c p weight -153 1 0
c p weight -150 1 0
c p weight 150 -1 0
c p weight 156 6.12323399573676603586882014729198302312846062338790031898128063403419218957424163818359375E-17 0
c p weight -156 1 0
c p weight 157 1 0
c p weight -157 1 0
c p weight -154 1 0
c p weight 154 -1 0
c p weight 160 -1 0
c p weight -160 1 0
c p weight 161 3.673940397442059375002259206809000622711899723162043418511757408850826323032379150390625E-16 0
c p weight -161 1 0
c p weight -158 1 0
c p weight 158 -1 0
c p weight -162 1 0
c p weight 162 -1 0
c p weight 167 1 0
c p weight -167 1 0
c p weight 168 0 0
c p weight -168 1 0
c p weight -165 1 0
c p weight 165 -1 0
c p weight 171 6.12323399573676603586882014729198302312846062338790031898128063403419218957424163818359375E-17 0
c p weight -171 1 0
c p weight 172 1 0
c p weight -172 1 0
c p weight -169 1 0
c p weight 169 -1 0
c p weight 175 -0.06611814736078959475751304353252635337412357330322265625 0
c p weight -175 1 0
c p weight 176 0.99781180118776757748122463453910313546657562255859375 0
c p weight -176 1 0
c p weight -173 1 0
c p weight 173 -1 0
c p weight 179 6.12323399573676603586882014729198302312846062338790031898128063403419218957424163818359375E-17 0
c p weight -179 1 0
c p weight 180 1 0
c p weight -180 1 0
c p weight -177 1 0
c p weight 177 -1 0
c p weight 183 -1 0
c p weight -183 1 0
c p weight 184 3.673940397442059375002259206809000622711899723162043418511757408850826323032379150390625E-16 0
c p weight -184 1 0
c p weight -181 1 0
c p weight 181 -1 0
c p weight -185 1 0
c p weight 185 -1 0
c p weight 190 1 0
c p weight -190 1 0
c p weight 191 0 0
c p weight -191 1 0
c p weight -188 1 0
c p weight 188 -1 0
c p weight 194 6.12323399573676603586882014729198302312846062338790031898128063403419218957424163818359375E-17 0
c p weight -194 1 0
c p weight 195 1 0
c p weight -195 1 0
c p weight -192 1 0
c p weight 192 -1 0
c p weight 198 -0.486641861830141631006796387737267650663852691650390625 0
c p weight -198 1 0
c p weight 199 -0.873601567257347166872705201967619359493255615234375 0
c p weight -199 1 0
c p weight -196 1 0
c p weight 196 -1 0
c p weight 202 6.12323399573676603586882014729198302312846062338790031898128063403419218957424163818359375E-17 0
c p weight -202 1 0
c p weight 203 1 0
c p weight -203 1 0
c p weight -200 1 0
c p weight 200 -1 0
c p weight 206 -1 0
c p weight -206 1 0
c p weight 207 3.673940397442059375002259206809000622711899723162043418511757408850826323032379150390625E-16 0
c p weight -207 1 0
c p weight -204 1 0
c p weight 204 -1 0
c p weight -208 1 0
c p weight 208 -1 0
c p weight 213 1 0
c p weight -213 1 0
c p weight 214 0 0
c p weight -214 1 0
c p weight -211 1 0
c p weight 211 -1 0
c p weight 217 6.12323399573676603586882014729198302312846062338790031898128063403419218957424163818359375E-17 0
c p weight -217 1 0
c p weight 218 1 0
c p weight -218 1 0
c p weight -215 1 0
c p weight 215 -1 0
c p weight 221 -0.849871234472090453238024565507657825946807861328125 0
c p weight -221 1 0
c p weight 222 -0.52699040296468868671553309468436054885387420654296875 0
c p weight -222 1 0
c p weight -219 1 0
c p weight 219 -1 0
c p weight 225 6.12323399573676603586882014729198302312846062338790031898128063403419218957424163818359375E-17 0
c p weight -225 1 0
c p weight 226 1 0
c p weight -226 1 0
c p weight -223 1 0
c p weight 223 -1 0
c p weight 229 -1 0
c p weight -229 1 0
c p weight 230 3.673940397442059375002259206809000622711899723162043418511757408850826323032379150390625E-16 0
c p weight -230 1 0
c p weight -227 1 0
c p weight 227 -1 0
c p weight -231 1 0
c p weight 231 -1 0
c p weight 236 1 0
c p weight -236 1 0
c p weight 237 0 0
c p weight -237 1 0
c p weight -234 1 0
c p weight 234 -1 0
c p weight 240 6.12323399573676603586882014729198302312846062338790031898128063403419218957424163818359375E-17 0
c p weight -240 1 0
c p weight 241 1 0
c p weight -241 1 0
c p weight -238 1 0
c p weight 238 -1 0
c p weight 244 0.39507201275466863332752609494491480290889739990234375 0
c p weight -244 1 0
c p weight 245 0.918650153615605091772522428072988986968994140625 0
c p weight -245 1 0
c p weight -242 1 0
c p weight 242 -1 0
c p weight 248 6.12323399573676603586882014729198302312846062338790031898128063403419218957424163818359375E-17 0
c p weight -248 1 0
c p weight 249 1 0
c p weight -249 1 0
c p weight -246 1 0
c p weight 246 -1 0
c p weight 252 -1 0
c p weight -252 1 0
c p weight 253 3.673940397442059375002259206809000622711899723162043418511757408850826323032379150390625E-16 0
c p weight -253 1 0
c p weight -250 1 0
c p weight 250 -1 0
c p weight 256 1 0
c p weight -256 1 0
c p weight 257 0 0
c p weight -257 1 0
c p weight -254 1 0
c p weight 254 -1 0
c p weight 260 6.12323399573676603586882014729198302312846062338790031898128063403419218957424163818359375E-17 0
c p weight -260 1 0
c p weight 261 1 0
c p weight -261 1 0
c p weight -258 1 0
c p weight 258 -1 0
c p weight 264 -0.957428415249673481213221748475916683673858642578125 0
c p weight -264 1 0
c p weight 265 0.288670798094470992811721998805296607315540313720703125 0
c p weight -265 1 0
c p weight -262 1 0
c p weight 262 -1 0
c p weight 268 6.12323399573676603586882014729198302312846062338790031898128063403419218957424163818359375E-17 0
c p weight -268 1 0
c p weight 269 1 0
c p weight -269 1 0
c p weight -266 1 0
c p weight 266 -1 0
c p weight 272 -1 0
c p weight -272 1 0
c p weight 273 3.673940397442059375002259206809000622711899723162043418511757408850826323032379150390625E-16 0
c p weight -273 1 0
c p weight -270 1 0
c p weight 270 -1 0
c p weight 274 0.5 0
c p weight -274 1 0
274 0
-5 0
-3 0
-1 0
-7 1 0
-7 2 0
-7 -8 0
7 8 -1 -2 0
8 1 -2 0
-8 1 2 0
-9 1 0
8 -9 -2 0
-8 -9 2 0
8 9 -1 2 0
-8 9 -1 -2 0
-10 1 0
8 -10 2 0
-8 -10 -2 0
8 10 -1 -2 0
-8 10 -1 2 0
-11 12 0
-11 8 0
-11 -1 0
11 -12 1 -8 0
12 -1 8 0
-12 1 8 0
-13 8 0
12 -13 -1 0
-12 -13 1 0
12 13 1 -8 0
-12 13 -1 -8 0
-14 8 0
12 -14 1 0
-12 -14 -1 0
12 14 -1 -8 0
-12 14 1 -8 0
-15 12 0
-15 8 0
-15 -16 0
15 16 -12 -8 0
16 12 -8 0
-16 12 8 0
-17 12 0
16 -17 -8 0
-16 -17 8 0
16 17 -12 8 0
-16 17 -12 -8 0
-18 12 0
16 -18 8 0
-16 -18 -8 0
16 18 -12 -8 0
-16 18 -12 8 0
-19 20 0
-19 16 0
-19 -12 0
19 -20 12 -16 0
20 -12 16 0
-20 12 16 0
-21 16 0
20 -21 -12 0
-20 -21 12 0
20 21 12 -16 0
-20 21 -12 -16 0
-22 16 0
20 -22 12 0
-20 -22 -12 0
20 22 -12 -16 0
-20 22 12 -16 0
-23 20 0
-23 16 0
-23 -24 0
23 24 -20 -16 0
24 20 -16 0
-24 20 16 0
-25 20 0
24 -25 -16 0
-24 -25 16 0
24 25 -20 16 0
-24 25 -20 -16 0
-26 20 0
24 -26 16 0
-24 -26 -16 0
24 26 -20 -16 0
-24 26 -20 16 0
-27 3 0
-27 4 0
-27 -28 0
27 28 -3 -4 0
28 3 -4 0
-28 3 4 0
-29 3 0
28 -29 -4 0
-28 -29 4 0
28 29 -3 4 0
-28 29 -3 -4 0
-30 3 0
28 -30 4 0
-28 -30 -4 0
28 30 -3 -4 0
-28 30 -3 4 0
-31 32 0
-31 28 0
-31 -3 0
31 -32 3 -28 0
32 -3 28 0
-32 3 28 0
-33 28 0
32 -33 -3 0
-32 -33 3 0
32 33 3 -28 0
-32 33 -3 -28 0
-34 28 0
32 -34 3 0
-32 -34 -3 0
32 34 -3 -28 0
-32 34 3 -28 0
-35 32 0
-35 28 0
-35 -36 0
35 36 -32 -28 0
36 32 -28 0
-36 32 28 0
-37 32 0
36 -37 -28 0
-36 -37 28 0
36 37 -32 28 0
-36 37 -32 -28 0
-38 32 0
36 -38 28 0
-36 -38 -28 0
36 38 -32 -28 0
-36 38 -32 28 0
-39 40 0
-39 36 0
-39 -32 0
39 -40 32 -36 0
40 -32 36 0
-40 32 36 0
-41 36 0
40 -41 -32 0
-40 -41 32 0
40 41 32 -36 0
-40 41 -32 -36 0
-42 36 0
40 -42 32 0
-40 -42 -32 0
40 42 -32 -36 0
-40 42 32 -36 0
-43 40 0
-43 36 0
-43 -44 0
43 44 -40 -36 0
44 40 -36 0
-44 40 36 0
-45 40 0
44 -45 -36 0
-44 -45 36 0
44 45 -40 36 0
-44 45 -40 -36 0
-46 40 0
44 -46 36 0
-44 -46 -36 0
44 46 -40 -36 0
-44 46 -40 36 0
-47 20 0
-47 44 0
-47 40 -24 0
-47 -40 24 0
47 -20 40 24 -44 0
47 -20 -40 -24 -44 0
49 20 -40 0
49 -20 40 0
-49 20 40 0
-49 -20 -40 0
48 24 -44 0
48 -24 44 0
-48 24 44 0
-48 -24 -44 0
-50 5 0
-50 6 0
-50 -51 0
50 51 -5 -6 0
51 5 -6 0
-51 5 6 0
-52 5 0
51 -52 -6 0
-51 -52 6 0
51 52 -5 6 0
-51 52 -5 -6 0
-53 5 0
51 -53 6 0
-51 -53 -6 0
51 53 -5 -6 0
-51 53 -5 6 0
-54 55 0
-54 51 0
-54 -5 0
54 -55 5 -51 0
55 -5 51 0
-55 5 51 0
-56 51 0
55 -56 -5 0
-55 -56 5 0
55 56 5 -51 0
-55 56 -5 -51 0
-57 51 0
55 -57 5 0
-55 -57 -5 0
55 57 -5 -51 0
-55 57 5 -51 0
-58 55 0
-58 51 0
-58 -59 0
58 59 -55 -51 0
59 55 -51 0
-59 55 51 0
-60 55 0
59 -60 -51 0
-59 -60 51 0
59 60 -55 51 0
-59 60 -55 -51 0
-61 55 0
59 -61 51 0
-59 -61 -51 0
59 61 -55 -51 0
-59 61 -55 51 0
-62 63 0
-62 59 0
-62 -55 0
62 -63 55 -59 0
63 -55 59 0
-63 55 59 0
-64 59 0
63 -64 -55 0
-63 -64 55 0
63 64 55 -59 0
-63 64 -55 -59 0
-65 59 0
63 -65 55 0
-63 -65 -55 0
63 65 -55 -59 0
-63 65 55 -59 0
-66 63 0
-66 59 0
-66 -67 0
66 67 -63 -59 0
67 63 -59 0
-67 63 59 0
-68 63 0
67 -68 -59 0
-67 -68 59 0
67 68 -63 59 0
-67 68 -63 -59 0
-69 63 0
67 -69 59 0
-67 -69 -59 0
67 69 -63 -59 0
-67 69 -63 59 0
-70 20 0
-70 67 0
-70 63 -48 0
-70 -63 48 0
70 -20 63 48 -67 0
70 -20 -63 -48 -67 0
72 20 -63 0
72 -20 63 0
-72 20 63 0
-72 -20 -63 0
71 48 -67 0
71 -48 67 0
-71 48 67 0
-71 -48 -67 0
-73 20 0
-73 71 0
-73 -74 0
73 74 -20 -71 0
74 20 -71 0
-74 20 71 0
-75 20 0
74 -75 -71 0
-74 -75 71 0
74 75 -20 71 0
-74 75 -20 -71 0
-76 20 0
74 -76 71 0
-74 -76 -71 0
74 76 -20 -71 0
-74 76 -20 71 0
-77 78 0
-77 74 0
-77 -20 0
77 -78 20 -74 0
78 -20 74 0
-78 20 74 0
-79 74 0
78 -79 -20 0
-78 -79 20 0
78 79 20 -74 0
-78 79 -20 -74 0
-80 74 0
78 -80 20 0
-78 -80 -20 0
78 80 -20 -74 0
-78 80 20 -74 0
-81 78 0
-81 74 0
-81 -82 0
81 82 -78 -74 0
82 78 -74 0
-82 78 74 0
-83 78 0
82 -83 -74 0
-82 -83 74 0
82 83 -78 74 0
-82 83 -78 -74 0
-84 78 0
82 -84 74 0
-82 -84 -74 0
82 84 -78 -74 0
-82 84 -78 74 0
-85 86 0
-85 82 0
-85 -78 0
85 -86 78 -82 0
86 -78 82 0
-86 78 82 0
-87 82 0
86 -87 -78 0
-86 -87 78 0
86 87 78 -82 0
-86 87 -78 -82 0
-88 82 0
86 -88 78 0
-86 -88 -78 0
86 88 -78 -82 0
-86 88 78 -82 0
-89 86 0
-89 82 0
-89 -90 0
89 90 -86 -82 0
90 86 -82 0
-90 86 82 0
-91 86 0
90 -91 -82 0
-90 -91 82 0
90 91 -86 82 0
-90 91 -86 -82 0
-92 86 0
90 -92 82 0
-90 -92 -82 0
90 92 -86 -82 0
-90 92 -86 82 0
-93 49 0
-93 67 0
-93 72 -44 0
-93 -72 44 0
93 -49 72 44 -67 0
93 -49 -72 -44 -67 0
95 49 -72 0
95 -49 72 0
-95 49 72 0
-95 -49 -72 0
94 44 -67 0
94 -44 67 0
-94 44 67 0
-94 -44 -67 0
-96 49 0
-96 94 0
-96 -97 0
96 97 -49 -94 0
97 49 -94 0
-97 49 94 0
-98 49 0
97 -98 -94 0
-97 -98 94 0
97 98 -49 94 0
-97 98 -49 -94 0
-99 49 0
97 -99 94 0
-97 -99 -94 0
97 99 -49 -94 0
-97 99 -49 94 0
-100 101 0
-100 97 0
-100 -49 0
100 -101 49 -97 0
101 -49 97 0
-101 49 97 0
-102 97 0
101 -102 -49 0
-101 -102 49 0
101 102 49 -97 0
-101 102 -49 -97 0
-103 97 0
101 -103 49 0
-101 -103 -49 0
101 103 -49 -97 0
-101 103 49 -97 0
-104 101 0
-104 97 0
-104 -105 0
104 105 -101 -97 0
105 101 -97 0
-105 101 97 0
-106 101 0
105 -106 -97 0
-105 -106 97 0
105 106 -101 97 0
-105 106 -101 -97 0
-107 101 0
105 -107 97 0
-105 -107 -97 0
105 107 -101 -97 0
-105 107 -101 97 0
-108 109 0
-108 105 0
-108 -101 0
108 -109 101 -105 0
109 -101 105 0
-109 101 105 0
-110 105 0
109 -110 -101 0
-109 -110 101 0
109 110 101 -105 0
-109 110 -101 -105 0
-111 105 0
109 -111 101 0
-109 -111 -101 0
109 111 -101 -105 0
-109 111 101 -105 0
-112 109 0
-112 105 0
-112 -113 0
112 113 -109 -105 0
113 109 -105 0
-113 109 105 0
-114 109 0
113 -114 -105 0
-113 -114 105 0
113 114 -109 105 0
-113 114 -109 -105 0
-115 109 0
113 -115 105 0
-113 -115 -105 0
113 115 -109 -105 0
-113 115 -109 105 0
-116 86 0
-116 113 0
-116 109 -90 0
-116 -109 90 0
116 -86 109 90 -113 0
116 -86 -109 -90 -113 0
118 86 -109 0
118 -86 109 0
-118 86 109 0
-118 -86 -109 0
117 90 -113 0
117 -90 113 0
-117 90 113 0
-117 -90 -113 0
-119 95 0
-119 67 0
-119 -120 0
119 120 -95 -67 0
120 95 -67 0
-120 95 67 0
-121 95 0
120 -121 -67 0
-120 -121 67 0
120 121 -95 67 0
-120 121 -95 -67 0
-122 95 0
120 -122 67 0
-120 -122 -67 0
120 122 -95 -67 0
-120 122 -95 67 0
-123 124 0
-123 120 0
-123 -95 0
123 -124 95 -120 0
124 -95 120 0
-124 95 120 0
-125 120 0
124 -125 -95 0
-124 -125 95 0
124 125 95 -120 0
-124 125 -95 -120 0
-126 120 0
124 -126 95 0
-124 -126 -95 0
124 126 -95 -120 0
-124 126 95 -120 0
-127 124 0
-127 120 0
-127 -128 0
127 128 -124 -120 0
128 124 -120 0
-128 124 120 0
-129 124 0
128 -129 -120 0
-128 -129 120 0
128 129 -124 120 0
-128 129 -124 -120 0
-130 124 0
128 -130 120 0
-128 -130 -120 0
128 130 -124 -120 0
-128 130 -124 120 0
-131 132 0
-131 128 0
-131 -124 0
131 -132 124 -128 0
132 -124 128 0
-132 124 128 0
-133 128 0
132 -133 -124 0
-132 -133 124 0
132 133 124 -128 0
-132 133 -124 -128 0
-134 128 0
132 -134 124 0
-132 -134 -124 0
132 134 -124 -128 0
-132 134 124 -128 0
-135 132 0
-135 128 0
-135 -136 0
135 136 -132 -128 0
136 132 -128 0
-136 132 128 0
-137 132 0
136 -137 -128 0
-136 -137 128 0
136 137 -132 128 0
-136 137 -132 -128 0
-138 132 0
136 -138 128 0
-136 -138 -128 0
136 138 -132 -128 0
-136 138 -132 128 0
-139 86 0
-139 136 0
-139 132 -117 0
-139 -132 117 0
139 -86 132 117 -136 0
139 -86 -132 -117 -136 0
141 86 -132 0
141 -86 132 0
-141 86 132 0
-141 -86 -132 0
140 117 -136 0
140 -117 136 0
-140 117 136 0
-140 -117 -136 0
-142 86 0
-142 140 0
-142 -143 0
142 143 -86 -140 0
143 86 -140 0
-143 86 140 0
-144 86 0
143 -144 -140 0
-143 -144 140 0
143 144 -86 140 0
-143 144 -86 -140 0
-145 86 0
143 -145 140 0
-143 -145 -140 0
143 145 -86 -140 0
-143 145 -86 140 0
-146 147 0
-146 143 0
-146 -86 0
146 -147 86 -143 0
147 -86 143 0
-147 86 143 0
-148 143 0
147 -148 -86 0
-147 -148 86 0
147 148 86 -143 0
-147 148 -86 -143 0
-149 143 0
147 -149 86 0
-147 -149 -86 0
147 149 -86 -143 0
-147 149 86 -143 0
-150 147 0
-150 143 0
-150 -151 0
150 151 -147 -143 0
151 147 -143 0
-151 147 143 0
-152 147 0
151 -152 -143 0
-151 -152 143 0
151 152 -147 143 0
-151 152 -147 -143 0
-153 147 0
151 -153 143 0
-151 -153 -143 0
151 153 -147 -143 0
-151 153 -147 143 0
-154 155 0
-154 151 0
-154 -147 0
154 -155 147 -151 0
155 -147 151 0
-155 147 151 0
-156 151 0
155 -156 -147 0
-155 -156 147 0
155 156 147 -151 0
-155 156 -147 -151 0
-157 151 0
155 -157 147 0
-155 -157 -147 0
155 157 -147 -151 0
-155 157 147 -151 0
-158 155 0
-158 151 0
-158 -159 0
158 159 -155 -151 0
159 155 -151 0
-159 155 151 0
-160 155 0
159 -160 -151 0
-159 -160 151 0
159 160 -155 151 0
-159 160 -155 -151 0
-161 155 0
159 -161 151 0
-159 -161 -151 0
159 161 -155 -151 0
-159 161 -155 151 0
-162 118 0
-162 136 0
-162 141 -113 0
-162 -141 113 0
162 -118 141 113 -136 0
162 -118 -141 -113 -136 0
164 118 -141 0
164 -118 141 0
-164 118 141 0
-164 -118 -141 0
163 113 -136 0
163 -113 136 0
-163 113 136 0
-163 -113 -136 0
-165 118 0
-165 163 0
-165 -166 0
165 166 -118 -163 0
166 118 -163 0
-166 118 163 0
-167 118 0
166 -167 -163 0
-166 -167 163 0
166 167 -118 163 0
-166 167 -118 -163 0
-168 118 0
166 -168 163 0
-166 -168 -163 0
166 168 -118 -163 0
-166 168 -118 163 0
-169 170 0
-169 166 0
-169 -118 0
169 -170 118 -166 0
170 -118 166 0
-170 118 166 0
-171 166 0
170 -171 -118 0
-170 -171 118 0
170 171 118 -166 0
-170 171 -118 -166 0
-172 166 0
170 -172 118 0
-170 -172 -118 0
170 172 -118 -166 0
-170 172 118 -166 0
-173 170 0
-173 166 0
-173 -174 0
173 174 -170 -166 0
174 170 -166 0
-174 170 166 0
-175 170 0
174 -175 -166 0
-174 -175 166 0
174 175 -170 166 0
-174 175 -170 -166 0
-176 170 0
174 -176 166 0
-174 -176 -166 0
174 176 -170 -166 0
-174 176 -170 166 0
-177 178 0
-177 174 0
-177 -170 0
177 -178 170 -174 0
178 -170 174 0
-178 170 174 0
-179 174 0
178 -179 -170 0
-178 -179 170 0
178 179 170 -174 0
-178 179 -170 -174 0
-180 174 0
178 -180 170 0
-178 -180 -170 0
178 180 -170 -174 0
-178 180 170 -174 0
-181 178 0
-181 174 0
-181 -182 0
181 182 -178 -174 0
182 178 -174 0
-182 178 174 0
-183 178 0
182 -183 -174 0
-182 -183 174 0
182 183 -178 174 0
-182 183 -178 -174 0
-184 178 0
182 -184 174 0
-182 -184 -174 0
182 184 -178 -174 0
-182 184 -178 174 0
-185 155 0
-185 182 0
-185 178 -159 0
-185 -178 159 0
185 -155 178 159 -182 0
185 -155 -178 -159 -182 0
187 155 -178 0
187 -155 178 0
-187 155 178 0
-187 -155 -178 0
186 159 -182 0
186 -159 182 0
-186 159 182 0
-186 -159 -182 0
-188 164 0
-188 136 0
-188 -189 0
188 189 -164 -136 0
189 164 -136 0
-189 164 136 0
-190 164 0
189 -190 -136 0
-189 -190 136 0
189 190 -164 136 0
-189 190 -164 -136 0
-191 164 0
189 -191 136 0
-189 -191 -136 0
189 191 -164 -136 0
-189 191 -164 136 0
-192 193 0
-192 189 0
-192 -164 0
192 -193 164 -189 0
193 -164 189 0
-193 164 189 0
-194 189 0
193 -194 -164 0
-193 -194 164 0
193 194 164 -189 0
-193 194 -164 -189 0
-195 189 0
193 -195 164 0
-193 -195 -164 0
193 195 -164 -189 0
-193 195 164 -189 0
-196 193 0
-196 189 0
-196 -197 0
196 197 -193 -189 0
197 193 -189 0
-197 193 189 0
-198 193 0
197 -198 -189 0
-197 -198 189 0
197 198 -193 189 0
-197 198 -193 -189 0
-199 193 0
197 -199 189 0
-197 -199 -189 0
197 199 -193 -189 0
-197 199 -193 189 0
-200 201 0
-200 197 0
-200 -193 0
200 -201 193 -197 0
201 -193 197 0
-201 193 197 0
-202 197 0
201 -202 -193 0
-201 -202 193 0
201 202 193 -197 0
-201 202 -193 -197 0
-203 197 0
201 -203 193 0
-201 -203 -193 0
201 203 -193 -197 0
-201 203 193 -197 0
-204 201 0
-204 197 0
-204 -205 0
204 205 -201 -197 0
205 201 -197 0
-205 201 197 0
-206 201 0
205 -206 -197 0
-205 -206 197 0
205 206 -201 197 0
-205 206 -201 -197 0
-207 201 0
205 -207 197 0
-205 -207 -197 0
205 207 -201 -197 0
-205 207 -201 197 0
-208 155 0
-208 205 0
-208 201 -186 0
-208 -201 186 0
208 -155 201 186 -205 0
208 -155 -201 -186 -205 0
210 155 -201 0
210 -155 201 0
-210 155 201 0
-210 -155 -201 0
209 186 -205 0
209 -186 205 0
-209 186 205 0
-209 -186 -205 0
-211 155 0
-211 209 0
-211 -212 0
211 212 -155 -209 0
212 155 -209 0
-212 155 209 0
-213 155 0
212 -213 -209 0
-212 -213 209 0
212 213 -155 209 0
-212 213 -155 -209 0
-214 155 0
212 -214 209 0
-212 -214 -209 0
212 214 -155 -209 0
-212 214 -155 209 0
-215 216 0
-215 212 0
-215 -155 0
215 -216 155 -212 0
216 -155 212 0
-216 155 212 0
-217 212 0
216 -217 -155 0
-216 -217 155 0
216 217 155 -212 0
-216 217 -155 -212 0
-218 212 0
216 -218 155 0
-216 -218 -155 0
216 218 -155 -212 0
-216 218 155 -212 0
-219 216 0
-219 212 0
-219 -220 0
219 220 -216 -212 0
220 216 -212 0
-220 216 212 0
-221 216 0
220 -221 -212 0
-220 -221 212 0
220 221 -216 212 0
-220 221 -216 -212 0
-222 216 0
220 -222 212 0
-220 -222 -212 0
220 222 -216 -212 0
-220 222 -216 212 0
-223 224 0
-223 220 0
-223 -216 0
223 -224 216 -220 0
224 -216 220 0
-224 216 220 0
-225 220 0
224 -225 -216 0
-224 -225 216 0
224 225 216 -220 0
-224 225 -216 -220 0
-226 220 0
224 -226 216 0
-224 -226 -216 0
224 226 -216 -220 0
-224 226 216 -220 0
-227 224 0
-227 220 0
-227 -228 0
227 228 -224 -220 0
228 224 -220 0
-228 224 220 0
-229 224 0
228 -229 -220 0
-228 -229 220 0
228 229 -224 220 0
-228 229 -224 -220 0
-230 224 0
228 -230 220 0
-228 -230 -220 0
228 230 -224 -220 0
-228 230 -224 220 0
-231 187 0
-231 205 0
-231 210 -182 0
-231 -210 182 0
231 -187 210 182 -205 0
231 -187 -210 -182 -205 0
233 187 -210 0
233 -187 210 0
-233 187 210 0
-233 -187 -210 0
232 182 -205 0
232 -182 205 0
-232 182 205 0
-232 -182 -205 0
-234 187 0
-234 232 0
-234 -235 0
234 235 -187 -232 0
235 187 -232 0
-235 187 232 0
-236 187 0
235 -236 -232 0
-235 -236 232 0
235 236 -187 232 0
-235 236 -187 -232 0
-237 187 0
235 -237 232 0
-235 -237 -232 0
235 237 -187 -232 0
-235 237 -187 232 0
-238 239 0
-238 235 0
-238 -187 0
238 -239 187 -235 0
239 -187 235 0
-239 187 235 0
-240 235 0
239 -240 -187 0
-239 -240 187 0
239 240 187 -235 0
-239 240 -187 -235 0
-241 235 0
239 -241 187 0
-239 -241 -187 0
239 241 -187 -235 0
-239 241 187 -235 0
-242 239 0
-242 235 0
-242 -243 0
242 243 -239 -235 0
243 239 -235 0
-243 239 235 0
-244 239 0
243 -244 -235 0
-243 -244 235 0
243 244 -239 235 0
-243 244 -239 -235 0
-245 239 0
243 -245 235 0
-243 -245 -235 0
243 245 -239 -235 0
-243 245 -239 235 0
-246 247 0
-246 243 0
-246 -239 0
246 -247 239 -243 0
247 -239 243 0
-247 239 243 0
-248 243 0
247 -248 -239 0
-247 -248 239 0
247 248 239 -243 0
-247 248 -239 -243 0
-249 243 0
247 -249 239 0
-247 -249 -239 0
247 249 -239 -243 0
-247 249 239 -243 0
-250 247 0
-250 243 0
-250 -251 0
250 251 -247 -243 0
251 247 -243 0
-251 247 243 0
-252 247 0
251 -252 -243 0
-251 -252 243 0
251 252 -247 243 0
-251 252 -247 -243 0
-253 247 0
251 -253 243 0
-251 -253 -243 0
251 253 -247 -243 0
-251 253 -247 243 0
-254 233 0
-254 205 0
-254 -255 0
254 255 -233 -205 0
255 233 -205 0
-255 233 205 0
-256 233 0
255 -256 -205 0
-255 -256 205 0
255 256 -233 205 0
-255 256 -233 -205 0
-257 233 0
255 -257 205 0
-255 -257 -205 0
255 257 -233 -205 0
-255 257 -233 205 0
-258 259 0
-258 255 0
-258 -233 0
258 -259 233 -255 0
259 -233 255 0
-259 233 255 0
-260 255 0
259 -260 -233 0
-259 -260 233 0
259 260 233 -255 0
-259 260 -233 -255 0
-261 255 0
259 -261 233 0
-259 -261 -233 0
259 261 -233 -255 0
-259 261 233 -255 0
-262 259 0
-262 255 0
-262 -263 0
262 263 -259 -255 0
263 259 -255 0
-263 259 255 0
-264 259 0
263 -264 -255 0
-263 -264 255 0
263 264 -259 255 0
-263 264 -259 -255 0
-265 259 0
263 -265 255 0
-263 -265 -255 0
263 265 -259 -255 0
-263 265 -259 255 0
-266 267 0
-266 263 0
-266 -259 0
266 -267 259 -263 0
267 -259 263 0
-267 259 263 0
-268 263 0
267 -268 -259 0
-267 -268 259 0
267 268 259 -263 0
-267 268 -259 -263 0
-269 263 0
267 -269 259 0
-267 -269 -259 0
267 269 -259 -263 0
-267 269 259 -263 0
-270 267 0
-270 263 0
-270 -271 0
270 271 -267 -263 0
271 267 -263 0
-271 267 263 0
-272 267 0
271 -272 -263 0
-271 -272 263 0
271 272 -267 263 0
-271 272 -267 -263 0
-273 267 0
271 -273 263 0
-271 -273 -263 0
271 273 -267 -263 0
-271 273 -267 263 0
-224 0
-247 0
-251 0
-267 0
-271 0
